NAME : XML100_1144_26
DIMENSION : 101
NB_CLUSTERS : 9
CLUSTERING_ALG : KMeans
CLUSTERING_PARAMS : k(8)
CLUSTERS
1 0
2 1 8 28 32 33 38 42 44 47 64 75
3 9 31 41 45 52 55 66 73 81 92 98
4 4 5 7 17 21 26 36 37 57 62 69 78 79 86 90
5 23 27 34 39 40 54 61 65 72 80 88 93 94 97
6 3 6 14 18 22 24 50 51 53 68 70 76 77 82 85 95 99
7 2 11 15 20 25 30 43 48 49 56 58 67 83 84 91 96
8 13 16 35 59 60 63 87 100
9 10 12 19 29 46 71 74 89
EOF